(set-logic QF_LIA)
(declare-fun x0 () Int)
(declare-fun x1 () Int)
(declare-fun x2 () Int)
(declare-fun x3 () Int)
(declare-fun x4 () Int)
(declare-fun x5 () Int)
(declare-fun x6 () Int)
(declare-fun x7 () Int)
(declare-fun x8 () Int)
(declare-fun x9 () Int)
(declare-fun A0 () Bool)
(declare-fun A1 () Bool)
(declare-fun A3 () Bool)
(declare-fun A4 () Bool)
(declare-fun A5 () Bool)
(declare-fun A6 () Bool)
(declare-fun A7 () Bool)
(declare-fun A8 () Bool)
(declare-fun A9 () Bool)
(assert (let ((.def_0 (* 1 x7))) (let ((.def_1 (* 1 x2))) (let ((.def_2 (+ .def_1 .def_0))) (let ((.def_3 (< .def_2 (- 1)))) (let ((.def_4 (not .def_3))) (let ((.def_5 (and .def_4 A3))) (let ((.def_6 (not A4))) (let ((.def_7 (and .def_6 A7))) (let ((.def_8 (not .def_7))) (let ((.def_9 (= .def_8 .def_5))) (let ((.def_10 (not .def_9))) (let ((.def_11 (* 1 x8))) (let ((.def_12 (< .def_11 (- 1)))) (let ((.def_13 (not .def_12))) (let ((.def_14 (not A3))) (let ((.def_15 (or .def_14 .def_13))) (let ((.def_16 (< .def_0 1))) (let ((.def_17 (* (- 1) x4))) (let ((.def_18 (< .def_17 (- 1)))) (let ((.def_19 (and .def_18 .def_16))) (let ((.def_20 (or .def_19 .def_15))) (let ((.def_21 (not .def_20))) (let ((.def_22 (or .def_21 .def_10))) (let ((.def_23 (* 1 x5))) (let ((.def_24 (* 1 x1))) (let ((.def_25 (+ .def_24 .def_23))) (let ((.def_26 (< .def_25 1))) (let ((.def_27 (not .def_26))) (let ((.def_28 (+ .def_11 .def_24))) (let ((.def_29 (< .def_28 1))) (let ((.def_30 (not .def_29))) (let ((.def_31 (or .def_30 .def_27))) (let ((.def_32 (* (- 1) x8))) (let ((.def_33 (< .def_32 (- 1)))) (let ((.def_34 (not .def_33))) (let ((.def_35 (* 1 x6))) (let ((.def_36 (< .def_35 (- 1)))) (let ((.def_37 (not .def_36))) (let ((.def_38 (and .def_37 .def_34))) (let ((.def_39 (not .def_38))) (let ((.def_40 (and .def_39 .def_31))) (let ((.def_41 (not .def_40))) (let ((.def_42 (< .def_32 1))) (let ((.def_43 (not .def_42))) (let ((.def_44 (not A0))) (let ((.def_45 (or .def_44 .def_43))) (let ((.def_46 (* (- 1) x9))) (let ((.def_47 (* 1 x4))) (let ((.def_48 (+ .def_47 .def_46))) (let ((.def_49 (< .def_48 (- 1)))) (let ((.def_50 (not A6))) (let ((.def_51 (= .def_50 .def_49))) (let ((.def_52 (and .def_51 .def_45))) (let ((.def_53 (not .def_52))) (let ((.def_54 (and .def_53 .def_41))) (let ((.def_55 (not .def_54))) (let ((.def_56 (and .def_55 .def_22))) (let ((.def_57 (* 1 x0))) (let ((.def_58 (* (- 1) x6))) (let ((.def_59 (+ .def_58 .def_57))) (let ((.def_60 (< .def_59 (- 1)))) (let ((.def_61 (+ .def_35 .def_17))) (let ((.def_62 (< .def_61 1))) (let ((.def_63 (not .def_62))) (let ((.def_64 (or .def_63 .def_60))) (let ((.def_65 (not .def_64))) (let ((.def_66 (not A5))) (let ((.def_67 (* (- 1) x2))) (let ((.def_68 (< .def_67 1))) (let ((.def_69 (not .def_68))) (let ((.def_70 (or .def_69 .def_66))) (let ((.def_71 (and .def_70 .def_65))) (let ((.def_72 (not .def_71))) (let ((.def_73 (< .def_1 1))) (let ((.def_74 (= .def_6 .def_73))) (let ((.def_75 (not .def_74))) (let ((.def_76 (* (- 1) x0))) (let ((.def_77 (+ .def_76 .def_17))) (let ((.def_78 (< .def_77 (- 1)))) (let ((.def_79 (not .def_78))) (let ((.def_80 (< .def_76 1))) (let ((.def_81 (and .def_80 .def_79))) (let ((.def_82 (not .def_81))) (let ((.def_83 (or .def_82 .def_75))) (let ((.def_84 (not .def_83))) (let ((.def_85 (and .def_84 .def_72))) (let ((.def_86 (and .def_6 .def_6))) (let ((.def_87 (not .def_86))) (let ((.def_88 (* 1 x9))) (let ((.def_89 (+ .def_67 .def_88))) (let ((.def_90 (< .def_89 (- 1)))) (let ((.def_91 (or .def_90 .def_66))) (let ((.def_92 (or .def_91 .def_87))) (let ((.def_93 (not .def_92))) (let ((.def_94 (* (- 1) x7))) (let ((.def_95 (< .def_94 (- 1)))) (let ((.def_96 (or .def_50 .def_95))) (let ((.def_97 (* (- 1) x3))) (let ((.def_98 (+ .def_35 .def_97))) (let ((.def_99 (< .def_98 (- 1)))) (let ((.def_100 (or .def_99 A3))) (let ((.def_101 (or .def_100 .def_96))) (let ((.def_102 (not .def_101))) (let ((.def_103 (or .def_102 .def_93))) (let ((.def_104 (not .def_103))) (let ((.def_105 (or .def_104 .def_85))) (let ((.def_106 (not .def_105))) (let ((.def_107 (and .def_106 .def_56))) (let ((.def_108 (not A1))) (let ((.def_109 (< .def_11 1))) (let ((.def_110 (and .def_109 .def_108))) (let ((.def_111 (+ .def_35 .def_46))) (let ((.def_112 (< .def_111 (- 1)))) (let ((.def_113 (not .def_112))) (let ((.def_114 (or .def_14 .def_113))) (let ((.def_115 (and .def_114 .def_110))) (let ((.def_116 (= A7 .def_66))) (let ((.def_117 (* (- 1) x1))) (let ((.def_118 (* 1 x3))) (let ((.def_119 (+ .def_118 .def_117))) (let ((.def_120 (< .def_119 1))) (let ((.def_121 (not .def_120))) (let ((.def_122 (not A9))) (let ((.def_123 (and .def_122 .def_121))) (let ((.def_124 (not .def_123))) (let ((.def_125 (and .def_124 .def_116))) (let ((.def_126 (not .def_125))) (let ((.def_127 (and .def_126 .def_115))) (let ((.def_128 (not .def_127))) (let ((.def_129 (< .def_46 (- 1)))) (let ((.def_130 (not .def_129))) (let ((.def_131 (and .def_130 .def_130))) (let ((.def_132 (+ .def_11 .def_0))) (let ((.def_133 (< .def_132 1))) (let ((.def_134 (* (- 1) x5))) (let ((.def_135 (+ .def_134 .def_76))) (let ((.def_136 (< .def_135 1))) (let ((.def_137 (not .def_136))) (let ((.def_138 (or .def_137 .def_133))) (let ((.def_139 (and .def_138 .def_131))) (let ((.def_140 (not .def_139))) (let ((.def_141 (+ .def_23 .def_67))) (let ((.def_142 (< .def_141 (- 1)))) (let ((.def_143 (< .def_76 (- 1)))) (let ((.def_144 (not .def_143))) (let ((.def_145 (or .def_144 .def_142))) (let ((.def_146 (not .def_145))) (let ((.def_147 (+ .def_88 .def_76))) (let ((.def_148 (< .def_147 (- 1)))) (let ((.def_149 (not .def_148))) (let ((.def_150 (+ .def_0 .def_47))) (let ((.def_151 (< .def_150 1))) (let ((.def_152 (not .def_151))) (let ((.def_153 (or .def_152 .def_149))) (let ((.def_154 (and .def_153 .def_146))) (let ((.def_155 (and .def_154 .def_140))) (let ((.def_156 (= .def_155 .def_128))) (let ((.def_157 (not .def_156))) (let ((.def_158 (or .def_14 .def_14))) (let ((.def_159 (not .def_158))) (let ((.def_160 (or .def_43 A0))) (let ((.def_161 (or .def_160 .def_159))) (let ((.def_162 (not .def_161))) (let ((.def_163 (not A8))) (let ((.def_164 (< .def_47 1))) (let ((.def_165 (not .def_164))) (let ((.def_166 (and .def_165 .def_163))) (let ((.def_167 (not .def_166))) (let ((.def_168 (or A7 A6))) (let ((.def_169 (or .def_168 .def_167))) (let ((.def_170 (and .def_169 .def_162))) (let ((.def_171 (not .def_170))) (let ((.def_172 (+ .def_46 .def_94))) (let ((.def_173 (< .def_172 (- 1)))) (let ((.def_174 (< .def_97 1))) (let ((.def_175 (= .def_174 .def_173))) (let ((.def_176 (< .def_0 (- 1)))) (let ((.def_177 (and .def_129 .def_176))) (let ((.def_178 (or .def_177 .def_175))) (let ((.def_179 (not .def_178))) (let ((.def_180 (+ .def_35 .def_67))) (let ((.def_181 (< .def_180 (- 1)))) (let ((.def_182 (or .def_163 .def_181))) (let ((.def_183 (or .def_50 .def_14))) (let ((.def_184 (and .def_183 .def_182))) (let ((.def_185 (not .def_184))) (let ((.def_186 (= .def_185 .def_179))) (let ((.def_187 (and .def_186 .def_171))) (let ((.def_188 (and .def_187 .def_157))) (let ((.def_189 (and .def_188 .def_107))) (let ((.def_190 (not .def_189))) (let ((.def_191 (<= x9 1))) (let ((.def_192 (<= 0 x9))) (let ((.def_193 (<= x8 1))) (let ((.def_194 (<= 0 x8))) (let ((.def_195 (<= x7 1))) (let ((.def_196 (<= 0 x7))) (let ((.def_197 (<= x6 1))) (let ((.def_198 (<= 0 x6))) (let ((.def_199 (<= x5 1))) (let ((.def_200 (<= 0 x5))) (let ((.def_201 (<= x4 1))) (let ((.def_202 (<= 0 x4))) (let ((.def_203 (<= x3 1))) (let ((.def_204 (<= 0 x3))) (let ((.def_205 (<= x2 1))) (let ((.def_206 (<= 0 x2))) (let ((.def_207 (<= x1 1))) (let ((.def_208 (<= 0 x1))) (let ((.def_209 (<= x0 1))) (let ((.def_210 (<= 0 x0))) (let ((.def_211 (and .def_210 .def_209 .def_208 .def_207 .def_206 .def_205 .def_204 .def_203 .def_202 .def_201 .def_200 .def_199 .def_198 .def_197 .def_196 .def_195 .def_194 .def_193 .def_192 .def_191 .def_190))) .def_211)))))))))))))))))))))))))))))))))))))))))))))))))))))))))))))))))))))))))))))))))))))))))))))))))))))))))))))))))))))))))))))))))))))))))))))))))))))))))))))))))))))))))))))))))))))))))))))))))))))))))))))))))))))
(check-sat)
